
Gurobi 9.0.3 (linux64, gurobi_cl) logging started Mon Oct  5 15:00:33 2020

Using license file /home/plaiseek/gurobi.lic
Set parameter LogFile to value gurobi.log
Academic license - for non-commercial use only
